/* Objective function */
min: +C10 +C12 +C13 +C14 +C15 +C16 +C17 +C18;

/* Constraints */
R1: +C4 = 0;
+C13 = 0;
R3: +C5 = 0;
+C14 = 0;
R5: +C8 = 0;
+C17 = 0;
+C1 -C10 <= 0.5;
+C1 +C10 >= 0.5;
+C2 = 1;
+C3 -C12 <= 0.333333333333;
+C3 +C12 >= 0.333333333333;
+C6 -C15 <= 0.333333333333;
+C6 +C15 >= 0.333333333333;
+C7 -C16 <= 0.5;
+C7 +C16 >= 0.5;
+C9 -C18 <= 0.333333333333;
+C9 +C18 >= 0.333333333333;
+C1 +C4 +C7 = 1;
+C2 +C5 +C8 = 1;
+C3 +C6 +C9 = 1;
+0.3 C1 +0.3 C2 +0.4 C3 = 0.3;
+0.3 C4 +0.3 C5 +0.4 C6 = 0.3;
+0.3 C7 +0.3 C8 +0.4 C9 = 0.4;
+0.3 C2 +0.4 C3 -0.3 C4 -0.3 C7 = 0;
-0.3 C2 +0.3 C4 +0.4 C6 -0.3 C8 = 0;
-0.4 C3 -0.4 C6 +0.3 C7 +0.3 C8 = 0;
